NAME          COPTPROB
OBJSENSE
  MIN
ROWS
 N  __OBJ___
 L  C57     
 L  C285    
 L  C332    
 L  C421    
 L  C442    
 L  C449    
 L  C507    
 L  C540    
COLUMNS
    MARKER    'MARKER'                 'INTORG'
    x15       __OBJ___  -1
    x15       C57       1
    x15       C285      1
    x15       C449      1
    x16       __OBJ___  -1
    x16       C57       1
    x16       C332      1
    x16       C507      1
    x37       __OBJ___  -1
    x37       C332      1
    x37       C421      1
    x46       __OBJ___  -1
    x46       C285      1
    x46       C421      1
    x123      __OBJ___  -1
    x123      C442      1
    x123      C449      1
    x226      __OBJ___  -1
    x226      C442      1
    x226      C540      1
    x297      __OBJ___  -1
    x297      C507      1
    x297      C540      1
    MARKER    'MARKER'                 'INTEND'
RHS
    RHS       __OBJ___  168
    RHS       C57       1
    RHS       C285      1
    RHS       C332      1
    RHS       C421      1
    RHS       C442      1
    RHS       C449      1
    RHS       C507      1
    RHS       C540      1
BOUNDS
 UP BOUND     x15       1
 UP BOUND     x16       1
 UP BOUND     x37       1
 UP BOUND     x46       1
 UP BOUND     x123      1
 UP BOUND     x226      1
 UP BOUND     x297      1
ENDATA
